data;

set A := 460 577 740 168 664 868 156 754 705 899 322 196 691 484 551 578 628 931 581 221 108 531 370 286 804 524 363 487 569 877 3 855 671 640 763 364 743 386 857 432 107 473 939 374 775 782 378 291 32 171 682 367 174 172 798 955 67 407 462 915 189 442 211 371 920 445 667 43 388 989 694 825 871 779 295 422 589 259 604 140 345 341 220 74 873 288 946 850 516 55 147 892 366 698 122 997;
param T := 24000;

end;
